language ESSENCE' 1.0

letting n be 8
letting values be [[1, 2, 1],
[1, 3, 2],
[1, 4, 3],
[1,5,4],
[1,6,5],
[1,7,6],
[1,8,7],
[2, 3, 8],
[2, 4, 9],
[2,5,10],
[2,6,11],
[2,7,12],
[2,8,13],
[3,4,14],
[3,5,15],
[3,6,16],
[3,7,17],
[3,8,18],
[4,5,19],
[4,6,20],
[4,7,21],
[4,8,22],
[5,6,23],
[5,7,24],
[5,8,25],
[6,7,26],
[6,8,27],
[7,8,28]]
